\ENCODING=ISO-8859-1
\Problem name: IloCplex

Maximize
 obj: 1.03677500267414 naDual(0)(1)#1 - 1.68152832836196 naDual(0)(2)#2
      - 0.644753325687815 naDual(0)(3)#3 - 1.68152832836196 naDual(0)(5)#5
      - 0.0168152832836196 naDual(0)(8)#8 + 0.824993594597938 naDual(1)(1)#10
      - 1.63742128991642 naDual(1)(2)#11 - 0.812427695318489 naDual(1)(3)#12
      - 1.63742128991642 naDual(1)(5)#14 - 0.0163742128991642 naDual(1)(8)#17
      - 0.909706183677461 naDual(2)(1)#19 + 1.65506415435649 naDual(2)(2)#20
      + 0.745357970679034 naDual(2)(3)#21 + 1.65506415435649 naDual(2)(5)#23
      + 0.016550641543565 naDual(2)(8)#26 + Cut#27 + [ - 2 naDual(0)(0)#0 ^2
      - 2 naDual(0)(1)#1 ^2 - 2 naDual(0)(2)#2 ^2 - 2 naDual(0)(3)#3 ^2
      - 2 naDual(0)(4)#4 ^2 - 2 naDual(0)(5)#5 ^2 - 2 naDual(0)(6)#6 ^2
      - 2 naDual(0)(7)#7 ^2 - 2 naDual(0)(8)#8 ^2 - 2 naDual(1)(0)#9 ^2
      - 2 naDual(1)(1)#10 ^2 - 2 naDual(1)(2)#11 ^2 - 2 naDual(1)(3)#12 ^2
      - 2 naDual(1)(4)#13 ^2 - 2 naDual(1)(5)#14 ^2 - 2 naDual(1)(6)#15 ^2
      - 2 naDual(1)(7)#16 ^2 - 2 naDual(1)(8)#17 ^2 - 2 naDual(2)(0)#18 ^2
      - 2 naDual(2)(1)#19 ^2 - 2 naDual(2)(2)#20 ^2 - 2 naDual(2)(3)#21 ^2
      - 2 naDual(2)(4)#22 ^2 - 2 naDual(2)(5)#23 ^2 - 2 naDual(2)(6)#24 ^2
      - 2 naDual(2)(7)#25 ^2 - 2 naDual(2)(8)#26 ^2 ] / 2 - 5.17776444884927
Subject To
 _Expectation(0)#0: 0.200000002980232 naDual(0)(0)#0
                    + 0.300000011920929 naDual(1)(0)#9 + 0.5 naDual(2)(0)#18
                     = 0
 _Expectation(1)#1: 0.200000002980232 naDual(0)(1)#1
                    + 0.300000011920929 naDual(1)(1)#10 + 0.5 naDual(2)(1)#19
                     = 0
 _Expectation(2)#2: 0.200000002980232 naDual(0)(2)#2
                    + 0.300000011920929 naDual(1)(2)#11 + 0.5 naDual(2)(2)#20
                     = 0
 _Expectation(3)#3: 0.200000002980232 naDual(0)(3)#3
                    + 0.300000011920929 naDual(1)(3)#12 + 0.5 naDual(2)(3)#21
                     = 0
 _Expectation(4)#4: 0.200000002980232 naDual(0)(4)#4
                    + 0.300000011920929 naDual(1)(4)#13 + 0.5 naDual(2)(4)#22
                     = 0
 _Expectation(5)#5: 0.200000002980232 naDual(0)(5)#5
                    + 0.300000011920929 naDual(1)(5)#14 + 0.5 naDual(2)(5)#23
                     = 0
 _Expectation(6)#6: 0.200000002980232 naDual(0)(6)#6
                    + 0.300000011920929 naDual(1)(6)#15 + 0.5 naDual(2)(6)#24
                     = 0
 _Expectation(7)#7: 0.200000002980232 naDual(0)(7)#7
                    + 0.300000011920929 naDual(1)(7)#16 + 0.5 naDual(2)(7)#25
                     = 0
 _Expectation(8)#8: 0.200000002980232 naDual(0)(8)#8
                    + 0.300000011920929 naDual(1)(8)#17 + 0.5 naDual(2)(8)#26
                     = 0
 Cut(0)#9:          5.00000007450581 naDual(0)(0)#0
                    + 9.00000013411045 naDual(0)(1)#1
                    + 6.00000008940697 naDual(0)(2)#2
                    + 20.0000002980232 naDual(0)(3)#3
                    + 5.00000007450581 naDual(0)(4)#4
                    + 6.00000008940697 naDual(0)(5)#5
                    - 0.0500000007450581 naDual(0)(7)#7
                    + 0.0100000001490116 naDual(0)(8)#8
                    + 7.50000029802322 naDual(1)(0)#9
                    + 15.0000005960464 naDual(1)(1)#10
                    + 7.50000029802322 naDual(1)(2)#11
                    + 30.0000011920929 naDual(1)(3)#12
                    + 7.50000029802322 naDual(1)(4)#13
                    + 7.50000029802322 naDual(1)(5)#14
                    - 0.0750000029802322 naDual(1)(7)#16 + 12.5 naDual(2)(0)#18
                    + 30 naDual(2)(1)#19 + 7.5 naDual(2)(2)#20
                    + 50 naDual(2)(3)#21 + 12.5 naDual(2)(4)#22
                    + 7.5 naDual(2)(5)#23 - 0.125 naDual(2)(7)#25
                    - 0.05 naDual(2)(8)#26 + Cut#27 <= -99276.0014779121
 Cut(1)#10:         5.00000007450581 naDual(0)(0)#0
                    + 12.0000001788139 naDual(0)(1)#1
                    + 17.0000002533197 naDual(0)(3)#3
                    + 5.00000007450581 naDual(0)(4)#4
                    - 0.0500000007450581 naDual(0)(7)#7
                    - 0.0500000007450581 naDual(0)(8)#8
                    + 7.50000029802322 naDual(1)(0)#9
                    + 18.0000007152557 naDual(1)(1)#10
                    + 4.50000017881393 naDual(1)(2)#11
                    + 30.0000011920929 naDual(1)(3)#12
                    + 7.50000029802322 naDual(1)(4)#13
                    + 4.50000017881393 naDual(1)(5)#14
                    - 0.0750000029802322 naDual(1)(7)#16
                    - 0.0300000011920929 naDual(1)(8)#17 + 12.5 naDual(2)(0)#18
                    + 7.5 naDual(2)(2)#20 + 20 naDual(2)(3)#21
                    + 12.5 naDual(2)(4)#22 + 7.5 naDual(2)(5)#23
                    - 0.125 naDual(2)(7)#25 - 0.05 naDual(2)(8)#26 + Cut#27
                    <= -99253.1684783232
 Cut(2)#11:         5.00000007450581 naDual(0)(0)#0
                    + 12.0000001788139 naDual(0)(1)#1
                    + 3.00000004470348 naDual(0)(2)#2
                    + 20.0000002980232 naDual(0)(3)#3
                    + 5.00000007450581 naDual(0)(4)#4
                    + 3.00000004470348 naDual(0)(5)#5
                    - 0.0500000007450581 naDual(0)(7)#7
                    - 0.0200000002980232 naDual(0)(8)#8
                    + 7.50000029802322 naDual(1)(0)#9
                    + 7.50000029802322 naDual(1)(3)#12
                    + 7.50000029802322 naDual(1)(4)#13
                    - 0.0750000029802322 naDual(1)(7)#16
                    - 0.0750000029802322 naDual(1)(8)#17 + 12.5 naDual(2)(0)#18
                    + 12.5 naDual(2)(1)#19 + 25 naDual(2)(2)#20
                    + 50 naDual(2)(3)#21 + 12.5 naDual(2)(4)#22
                    + 25 naDual(2)(5)#23 - 0.125 naDual(2)(7)#25
                    + 0.125 naDual(2)(8)#26 + Cut#27 <= -99215.0539781366
 Cut(3)#12:         5.00000007450581 naDual(0)(0)#0
                    + 5.00000007450581 naDual(0)(3)#3
                    + 5.00000007450581 naDual(0)(4)#4
                    - 0.0500000007450581 naDual(0)(7)#7
                    - 0.0500000007450581 naDual(0)(8)#8
                    + 7.50000029802322 naDual(1)(0)#9
                    + 15.0000005960464 naDual(1)(1)#10
                    + 7.50000029802322 naDual(1)(2)#11
                    + 30.0000011920929 naDual(1)(3)#12
                    + 7.50000029802322 naDual(1)(4)#13
                    + 7.50000029802322 naDual(1)(5)#14
                    - 0.0750000029802322 naDual(1)(7)#16 + 12.5 naDual(2)(0)#18
                    + 12.5 naDual(2)(1)#19 + 25 naDual(2)(2)#20
                    + 50 naDual(2)(3)#21 + 12.5 naDual(2)(4)#22
                    + 25 naDual(2)(5)#23 - 0.125 naDual(2)(7)#25
                    + 0.125 naDual(2)(8)#26 + Cut#27 <= -99225.4714782966
 Cut(4)#13:         5.00000007450581 naDual(0)(0)#0
                    + 12.0000001788139 naDual(0)(1)#1
                    + 17.0000002533197 naDual(0)(3)#3
                    + 5.00000007450581 naDual(0)(4)#4
                    - 0.0500000007450581 naDual(0)(7)#7
                    - 0.0500000007450581 naDual(0)(8)#8
                    + 7.50000029802322 naDual(1)(0)#9
                    + 15.0000005960464 naDual(1)(1)#10
                    + 7.50000029802322 naDual(1)(2)#11
                    + 30.0000011920929 naDual(1)(3)#12
                    + 7.50000029802322 naDual(1)(4)#13
                    + 7.50000029802322 naDual(1)(5)#14
                    - 0.0750000029802322 naDual(1)(7)#16 + 12.5 naDual(2)(0)#18
                    + 12.5 naDual(2)(1)#19 + 25 naDual(2)(2)#20
                    + 50 naDual(2)(3)#21 + 12.5 naDual(2)(4)#22
                    + 25 naDual(2)(5)#23 - 0.125 naDual(2)(7)#25
                    + 0.125 naDual(2)(8)#26 + Cut#27 <= -99226.1734782978
 Cut(5)#14:         5.00000007450581 naDual(0)(0)#0
                    + 12.0000001788139 naDual(0)(1)#1
                    + 3.00000004470348 naDual(0)(2)#2
                    + 20.0000002980232 naDual(0)(3)#3
                    + 5.00000007450581 naDual(0)(4)#4
                    + 3.00000004470348 naDual(0)(5)#5
                    - 0.0500000007450581 naDual(0)(7)#7
                    - 0.0200000002980232 naDual(0)(8)#8
                    + 7.50000029802322 naDual(1)(0)#9
                    + 15.0000005960464 naDual(1)(1)#10
                    + 22.5000008940697 naDual(1)(3)#12
                    + 7.50000029802322 naDual(1)(4)#13
                    - 0.0750000029802322 naDual(1)(7)#16
                    - 0.0750000029802322 naDual(1)(8)#17 + 12.5 naDual(2)(0)#18
                    + 7.5 naDual(2)(2)#20 + 20 naDual(2)(3)#21
                    + 12.5 naDual(2)(4)#22 + 7.5 naDual(2)(5)#23
                    - 0.125 naDual(2)(7)#25 - 0.05 naDual(2)(8)#26 + Cut#27
                    <= -99250.3139782006
 Cut(6)#15:         5.00000007450581 naDual(0)(0)#0
                    + 12.0000001788139 naDual(0)(1)#1
                    + 3.00000004470348 naDual(0)(2)#2
                    + 20.0000002980232 naDual(0)(3)#3
                    + 5.00000007450581 naDual(0)(4)#4
                    + 3.00000004470348 naDual(0)(5)#5
                    - 0.0500000007450581 naDual(0)(7)#7
                    - 0.0200000002980232 naDual(0)(8)#8
                    + 7.50000029802322 naDual(1)(0)#9
                    + 15.0000005960464 naDual(1)(1)#10
                    + 22.5000008940697 naDual(1)(3)#12
                    + 7.50000029802322 naDual(1)(4)#13
                    - 0.0750000029802322 naDual(1)(7)#16
                    - 0.0750000029802322 naDual(1)(8)#17 + 12.5 naDual(2)(0)#18
                    + 12.5 naDual(2)(1)#19 + 25 naDual(2)(2)#20
                    + 50 naDual(2)(3)#21 + 12.5 naDual(2)(4)#22
                    + 25 naDual(2)(5)#23 - 0.125 naDual(2)(7)#25
                    + 0.125 naDual(2)(8)#26 + Cut#27 <= -99216.7189781945
 Cut(7)#16:         5.00000007450581 naDual(0)(0)#0
                    + 12.0000001788139 naDual(0)(1)#1
                    + 3.00000004470348 naDual(0)(2)#2
                    + 20.0000002980232 naDual(0)(3)#3
                    + 5.00000007450581 naDual(0)(4)#4
                    + 3.00000004470348 naDual(0)(5)#5
                    - 0.0500000007450581 naDual(0)(7)#7
                    - 0.0200000002980232 naDual(0)(8)#8
                    + 7.50000029802322 naDual(1)(0)#9
                    + 15.0000005960464 naDual(1)(1)#10
                    + 7.50000029802322 naDual(1)(2)#11
                    + 30.0000011920929 naDual(1)(3)#12
                    + 7.50000029802322 naDual(1)(4)#13
                    + 7.50000029802322 naDual(1)(5)#14
                    - 0.0750000029802322 naDual(1)(7)#16 + 12.5 naDual(2)(0)#18
                    + 30 naDual(2)(1)#19 + 7.5 naDual(2)(2)#20
                    + 50 naDual(2)(3)#21 + 12.5 naDual(2)(4)#22
                    + 7.5 naDual(2)(5)#23 - 0.125 naDual(2)(7)#25
                    - 0.05 naDual(2)(8)#26 + Cut#27 <= -99269.4014780954
 Cut(8)#17:         5.00000007450581 naDual(0)(0)#0
                    + 9.00000013411045 naDual(0)(1)#1
                    + 6.00000008940697 naDual(0)(2)#2
                    + 20.0000002980232 naDual(0)(3)#3
                    + 5.00000007450581 naDual(0)(4)#4
                    + 6.00000008940697 naDual(0)(5)#5
                    - 0.0500000007450581 naDual(0)(7)#7
                    + 0.0100000001490116 naDual(0)(8)#8
                    + 7.50000029802322 naDual(1)(0)#9
                    + 15.0000005960464 naDual(1)(1)#10
                    + 7.50000029802322 naDual(1)(2)#11
                    + 30.0000011920929 naDual(1)(3)#12
                    + 7.50000029802322 naDual(1)(4)#13
                    + 7.50000029802322 naDual(1)(5)#14
                    - 0.0750000029802322 naDual(1)(7)#16 + 12.5 naDual(2)(0)#18
                    + 25 naDual(2)(2)#20 + 37.5 naDual(2)(3)#21
                    + 12.5 naDual(2)(4)#22 + 25 naDual(2)(5)#23
                    - 0.125 naDual(2)(7)#25 + 0.125 naDual(2)(8)#26 + Cut#27
                    <= -99237.6889779294
 Cut(9)#18:         5.00000007450581 naDual(0)(0)#0
                    + 9.00000013411045 naDual(0)(1)#1
                    + 6.00000008940697 naDual(0)(2)#2
                    + 20.0000002980232 naDual(0)(3)#3
                    + 5.00000007450581 naDual(0)(4)#4
                    + 6.00000008940697 naDual(0)(5)#5
                    - 0.0500000007450581 naDual(0)(7)#7
                    + 0.0100000001490116 naDual(0)(8)#8
                    + 7.50000029802322 naDual(1)(0)#9
                    + 15.0000005960464 naDual(1)(1)#10
                    + 7.50000029802322 naDual(1)(2)#11
                    + 30.0000011920929 naDual(1)(3)#12
                    + 7.50000029802322 naDual(1)(4)#13
                    + 7.50000029802322 naDual(1)(5)#14
                    - 0.0750000029802322 naDual(1)(7)#16 + 12.5 naDual(2)(0)#18
                    + 12.5 naDual(2)(1)#19 + 25 naDual(2)(2)#20
                    + 50 naDual(2)(3)#21 + 12.5 naDual(2)(4)#22
                    + 25 naDual(2)(5)#23 - 0.125 naDual(2)(7)#25
                    + 0.125 naDual(2)(8)#26 + Cut#27 <= -99239.0764779225
 Cut(10)#19:        5.00000007450581 naDual(0)(0)#0
                    + 9.00000013411045 naDual(0)(1)#1
                    + 6.00000008940697 naDual(0)(2)#2
                    + 20.0000002980232 naDual(0)(3)#3
                    + 5.00000007450581 naDual(0)(4)#4
                    + 6.00000008940697 naDual(0)(5)#5
                    - 0.0500000007450581 naDual(0)(7)#7
                    + 0.0100000001490116 naDual(0)(8)#8
                    + 7.50000029802322 naDual(1)(0)#9
                    + 15.0000005960464 naDual(1)(1)#10
                    + 7.50000029802322 naDual(1)(2)#11
                    + 30.0000011920929 naDual(1)(3)#12
                    + 7.50000029802322 naDual(1)(4)#13
                    + 7.50000029802322 naDual(1)(5)#14
                    - 0.0750000029802322 naDual(1)(7)#16 + 12.5 naDual(2)(0)#18
                    + 30 naDual(2)(1)#19 + 7.5 naDual(2)(2)#20
                    + 50 naDual(2)(3)#21 + 12.5 naDual(2)(4)#22
                    + 7.5 naDual(2)(5)#23 - 0.125 naDual(2)(7)#25
                    - 0.05 naDual(2)(8)#26 + Cut#27 <= -99276.0014779121
 Cut(11)#20:        5.00000007450581 naDual(0)(0)#0
                    + 9.00000013411045 naDual(0)(1)#1
                    + 6.00000008940697 naDual(0)(2)#2
                    + 20.0000002980232 naDual(0)(3)#3
                    + 5.00000007450581 naDual(0)(4)#4
                    + 6.00000008940697 naDual(0)(5)#5
                    - 0.0500000007450581 naDual(0)(7)#7
                    + 0.0100000001490116 naDual(0)(8)#8
                    + 7.50000029802322 naDual(1)(0)#9
                    + 15.0000005960464 naDual(1)(1)#10
                    + 7.50000029802322 naDual(1)(2)#11
                    + 30.0000011920929 naDual(1)(3)#12
                    + 7.50000029802322 naDual(1)(4)#13
                    + 7.50000029802322 naDual(1)(5)#14
                    - 0.0750000029802322 naDual(1)(7)#16 + 12.5 naDual(2)(0)#18
                    + 30 naDual(2)(1)#19 + 7.5 naDual(2)(2)#20
                    + 50 naDual(2)(3)#21 + 12.5 naDual(2)(4)#22
                    + 7.5 naDual(2)(5)#23 - 0.125 naDual(2)(7)#25
                    - 0.05 naDual(2)(8)#26 + Cut#27 <= -99276.0014779121
 Cut(12)#21:        5.00000007450581 naDual(0)(0)#0
                    + 9.00000013411045 naDual(0)(1)#1
                    + 6.00000008940697 naDual(0)(2)#2
                    + 20.0000002980232 naDual(0)(3)#3
                    + 5.00000007450581 naDual(0)(4)#4
                    + 6.00000008940697 naDual(0)(5)#5
                    - 0.0500000007450581 naDual(0)(7)#7
                    + 0.0100000001490116 naDual(0)(8)#8
                    + 7.50000029802322 naDual(1)(0)#9
                    + 15.0000005960464 naDual(1)(1)#10
                    + 7.50000029802322 naDual(1)(2)#11
                    + 30.0000011920929 naDual(1)(3)#12
                    + 7.50000029802322 naDual(1)(4)#13
                    + 7.50000029802322 naDual(1)(5)#14
                    - 0.0750000029802322 naDual(1)(7)#16 + 12.5 naDual(2)(0)#18
                    + 30 naDual(2)(1)#19 + 7.5 naDual(2)(2)#20
                    + 50 naDual(2)(3)#21 + 12.5 naDual(2)(4)#22
                    + 7.5 naDual(2)(5)#23 - 0.125 naDual(2)(7)#25
                    - 0.05 naDual(2)(8)#26 + Cut#27 <= -99276.0014779121
 Cut(13)#22:        5.00000007450581 naDual(0)(0)#0
                    + 9.00000013411045 naDual(0)(1)#1
                    + 6.00000008940697 naDual(0)(2)#2
                    + 20.0000002980232 naDual(0)(3)#3
                    + 5.00000007450581 naDual(0)(4)#4
                    + 6.00000008940697 naDual(0)(5)#5
                    - 0.0500000007450581 naDual(0)(7)#7
                    + 0.0100000001490116 naDual(0)(8)#8
                    + 7.50000029802322 naDual(1)(0)#9
                    + 15.0000005960464 naDual(1)(1)#10
                    + 7.50000029802322 naDual(1)(2)#11
                    + 30.0000011920929 naDual(1)(3)#12
                    + 7.50000029802322 naDual(1)(4)#13
                    + 7.50000029802322 naDual(1)(5)#14
                    - 0.0750000029802322 naDual(1)(7)#16 + 12.5 naDual(2)(0)#18
                    + 30 naDual(2)(1)#19 + 7.5 naDual(2)(2)#20
                    + 50 naDual(2)(3)#21 + 12.5 naDual(2)(4)#22
                    + 7.5 naDual(2)(5)#23 - 0.125 naDual(2)(7)#25
                    - 0.05 naDual(2)(8)#26 + Cut#27 <= -99276.0014779121
 Cut(14)#23:        5.00000007450581 naDual(0)(0)#0
                    + 9.00000013411045 naDual(0)(1)#1
                    + 6.00000008940697 naDual(0)(2)#2
                    + 20.0000002980232 naDual(0)(3)#3
                    + 5.00000007450581 naDual(0)(4)#4
                    + 6.00000008940697 naDual(0)(5)#5
                    - 0.0500000007450581 naDual(0)(7)#7
                    + 0.0100000001490116 naDual(0)(8)#8
                    + 7.50000029802322 naDual(1)(0)#9
                    + 15.0000005960464 naDual(1)(1)#10
                    + 7.50000029802322 naDual(1)(2)#11
                    + 30.0000011920929 naDual(1)(3)#12
                    + 7.50000029802322 naDual(1)(4)#13
                    + 7.50000029802322 naDual(1)(5)#14
                    - 0.0750000029802322 naDual(1)(7)#16 + 12.5 naDual(2)(0)#18
                    + 30 naDual(2)(1)#19 + 7.5 naDual(2)(2)#20
                    + 50 naDual(2)(3)#21 + 12.5 naDual(2)(4)#22
                    + 7.5 naDual(2)(5)#23 - 0.125 naDual(2)(7)#25
                    - 0.05 naDual(2)(8)#26 + Cut#27 <= -99276.0014779121
Bounds
      naDual(0)(0)#0 Free
      naDual(0)(1)#1 Free
      naDual(0)(2)#2 Free
      naDual(0)(3)#3 Free
      naDual(0)(4)#4 Free
      naDual(0)(5)#5 Free
      naDual(0)(6)#6 Free
      naDual(0)(7)#7 Free
      naDual(0)(8)#8 Free
      naDual(1)(0)#9 Free
      naDual(1)(1)#10 Free
      naDual(1)(2)#11 Free
      naDual(1)(3)#12 Free
      naDual(1)(4)#13 Free
      naDual(1)(5)#14 Free
      naDual(1)(6)#15 Free
      naDual(1)(7)#16 Free
      naDual(1)(8)#17 Free
      naDual(2)(0)#18 Free
      naDual(2)(1)#19 Free
      naDual(2)(2)#20 Free
      naDual(2)(3)#21 Free
      naDual(2)(4)#22 Free
      naDual(2)(5)#23 Free
      naDual(2)(6)#24 Free
      naDual(2)(7)#25 Free
      naDual(2)(8)#26 Free
-999999 <= Cut#27 <= 0
End
